CST01
Position Depot: Random
Horizon for Depot: Small
Position of customers: Cluster
Distribution of the demand: Large
Width of time windows: Tight
Distribution of the service: Large

VEHICLE 
NUMBER 	 CAPACITY 
 7 	 	 346 
 
CUSTOMER
CUST NO. 	 XCOORD.  	 YCOORD. 	 DEMAND 	 READY TIME 	 DUE DATE 	 SERVICE TIME 
 0 	 	 285 	 	 276 	 	 0 	 	 0 	 	 2089 	 	 0 
  1 	 	 758 	 	 93 	 	 52 	 	 732 	 	 832 	 	 155 
  2 	 	 923 	 	 821 	 	 23 	 	 1230 	 	 1339 	 	 181 
  3 	 	 519 	 	 23 	 	 5 	 	 1272 	 	 1408 	 	 178 
  4 	 	 363 	 	 30 	 	 71 	 	 1446 	 	 1589 	 	 131 
  5 	 	 528 	 	 25 	 	 78 	 	 495 	 	 654 	 	 166 
  6 	 	 456 	 	 58 	 	 94 	 	 448 	 	 507 	 	 155 
  7 	 	 587 	 	 97 	 	 31 	 	 751 	 	 891 	 	 172 
  8 	 	 945 	 	 798 	 	 62 	 	 829 	 	 965 	 	 147 
  9 	 	 965 	 	 941 	 	 16 	 	 910 	 	 1046 	 	 134 
  10 	 	 822 	 	 763 	 	 8 	 	 689 	 	 797 	 	 132 
  11 	 	 384 	 	 27 	 	 63 	 	 1202 	 	 1353 	 	 155 
  12 	 	 952 	 	 885 	 	 63 	 	 929 	 	 993 	 	 168 
  13 	 	 808 	 	 109 	 	 85 	 	 1902 	 	 1999 	 	 194 
  14 	 	 792 	 	 787 	 	 43 	 	 1426 	 	 1548 	 	 178 
  15 	 	 922 	 	 756 	 	 91 	 	 739 	 	 877 	 	 166 
  16 	 	 508 	 	 70 	 	 42 	 	 1840 	 	 1977 	 	 161 
  17 	 	 572 	 	 76 	 	 99 	 	 319 	 	 384 	 	 113 
  18 	 	 360 	 	 64 	 	 34 	 	 287 	 	 487 	 	 110 
  19 	 	 602 	 	 192 	 	 71 	 	 292 	 	 360 	 	 129 
  20 	 	 760 	 	 127 	 	 5 	 	 766 	 	 831 	 	 126 
  21 	 	 820 	 	 748 	 	 77 	 	 688 	 	 784 	 	 149 
  22 	 	 398 	 	 108 	 	 58 	 	 828 	 	 965 	 	 123 
  23 	 	 215 	 	 9 	 	 51 	 	 1953 	 	 2069 	 	 105 
  24 	 	 431 	 	 192 	 	 84 	 	 1679 	 	 1786 	 	 132 
  25 	 	 611 	 	 70 	 	 13 	 	 375 	 	 529 	 	 182 
  26 	 	 285 	 	 137 	 	 65 	 	 997 	 	 1065 	 	 148 
  27 	 	 572 	 	 69 	 	 5 	 	 1899 	 	 2089 	 	 140 
  28 	 	 898 	 	 941 	 	 4 	 	 884 	 	 994 	 	 200 
  29 	 	 823 	 	 817 	 	 55 	 	 1955 	 	 2089 	 	 168 
  30 	 	 605 	 	 100 	 	 56 	 	 1597 	 	 1736 	 	 178 
  31 	 	 834 	 	 54 	 	 97 	 	 542 	 	 651 	 	 170 
  32 	 	 901 	 	 756 	 	 15 	 	 741 	 	 859 	 	 111 
  33 	 	 402 	 	 48 	 	 15 	 	 990 	 	 1188 	 	 139 
  34 	 	 731 	 	 100 	 	 76 	 	 1472 	 	 1659 	 	 133 
  35 	 	 876 	 	 110 	 	 7 	 	 772 	 	 839 	 	 200 
  36 	 	 813 	 	 106 	 	 95 	 	 500 	 	 610 	 	 101 
  37 	 	 943 	 	 866 	 	 88 	 	 808 	 	 972 	 	 174 
  38 	 	 267 	 	 16 	 	 49 	 	 1770 	 	 1896 	 	 190 
  39 	 	 925 	 	 831 	 	 50 	 	 1107 	 	 1201 	 	 134 
  40 	 	 810 	 	 124 	 	 38 	 	 1875 	 	 2059 	 	 132 
  41 	 	 361 	 	 23 	 	 3 	 	 1352 	 	 1537 	 	 119 
  42 	 	 723 	 	 121 	 	 30 	 	 855 	 	 920 	 	 196 
  43 	 	 515 	 	 112 	 	 3 	 	 155 	 	 310 	 	 130 
  44 	 	 754 	 	 157 	 	 64 	 	 1000 	 	 1194 	 	 178 
  45 	 	 485 	 	 112 	 	 23 	 	 809 	 	 970 	 	 194 
  46 	 	 428 	 	 18 	 	 34 	 	 1188 	 	 1378 	 	 111 
  47 	 	 503 	 	 28 	 	 93 	 	 1109 	 	 1274 	 	 100 
  48 	 	 345 	 	 56 	 	 86 	 	 1646 	 	 1732 	 	 155 
  49 	 	 304 	 	 34 	 	 63 	 	 1236 	 	 1391 	 	 127 
  50 	 	 960 	 	 782 	 	 33 	 	 858 	 	 927 	 	 163 
 